sat-competition-2018/bijection/benchmarks/cms-scheel-sha3-bijection-w1-rr.cnf
c This is a CNF SAT formula in the DIMACS CNF format,
c produced with the bc2cnf translator by Tommi Junttila;
c see http://users.ics.aalto.fi/tjunttil/circuits/index.html
c cbijection <-> 1
c csurout <-> 3
c cinin <-> 3
c cinout <-> 4
c csurin <-> 4
c h2out24 <-> 30
c h2r0r24 <-> 30
c h2in24 <-> 30
c h2out23 <-> 31
c h2r0r23 <-> 31
c h2in23 <-> 31
c h2out22 <-> 32
c h2r0r22 <-> 32
c h2in22 <-> 32
c h2out21 <-> 33
c h2r0r21 <-> 33
c h2in21 <-> 33
c h2out20 <-> 34
c h2r0r20 <-> 34
c h2in20 <-> 34
c h2out19 <-> 35
c h2r0r19 <-> 35
c h2in19 <-> 35
c h2out18 <-> 36
c h2r0r18 <-> 36
c h2in18 <-> 36
c h2out17 <-> 37
c h2r0r17 <-> 37
c h2in17 <-> 37
c h2out16 <-> 38
c h2r0r16 <-> 38
c h2in16 <-> 38
c h2out15 <-> 39
c h2r0r15 <-> 39
c h2in15 <-> 39
c h2out14 <-> 40
c h2r0r14 <-> 40
c h2in14 <-> 40
c h2out13 <-> 41
c h2r0r13 <-> 41
c h2in13 <-> 41
c h2out12 <-> 42
c h2r0r12 <-> 42
c h2in12 <-> 42
c h2out11 <-> 43
c h2r0r11 <-> 43
c h2in11 <-> 43
c h2out10 <-> 44
c h2r0r10 <-> 44
c h2in10 <-> 44
c h2out9 <-> 45
c h2r0r9 <-> 45
c h2in9 <-> 45
c h2out8 <-> 46
c h2r0r8 <-> 46
c h2in8 <-> 46
c h2out7 <-> 47
c h2r0r7 <-> 47
c h2in7 <-> 47
c h2out6 <-> 48
c h2r0r6 <-> 48
c h2in6 <-> 48
c h2out5 <-> 49
c h2r0r5 <-> 49
c h2in5 <-> 49
c h2out4 <-> 50
c h2r0r4 <-> 50
c h2in4 <-> 50
c h2out3 <-> 51
c h2r0r3 <-> 51
c h2in3 <-> 51
c h2out2 <-> 52
c h2r0r2 <-> 52
c h2in2 <-> 52
c h2out1 <-> 53
c h2r0r1 <-> 53
c h2in1 <-> 53
c h2out0 <-> 54
c h2r0r0 <-> 54
c h2in0 <-> 54
c h1out24 <-> 55
c h1r0r24 <-> 55
c h1in24 <-> 55
c h1out23 <-> 56
c h1r0r23 <-> 56
c h1in23 <-> 56
c h1out22 <-> 57
c h1r0r22 <-> 57
c h1in22 <-> 57
c h1out21 <-> 58
c h1r0r21 <-> 58
c h1in21 <-> 58
c h1out20 <-> 59
c h1r0r20 <-> 59
c h1in20 <-> 59
c h1out19 <-> 60
c h1r0r19 <-> 60
c h1in19 <-> 60
c h1out18 <-> 61
c h1r0r18 <-> 61
c h1in18 <-> 61
c h1out17 <-> 62
c h1r0r17 <-> 62
c h1in17 <-> 62
c h1out16 <-> 63
c h1r0r16 <-> 63
c h1in16 <-> 63
c h1out15 <-> 64
c h1r0r15 <-> 64
c h1in15 <-> 64
c h1out14 <-> 65
c h1r0r14 <-> 65
c h1in14 <-> 65
c h1out13 <-> 66
c h1r0r13 <-> 66
c h1in13 <-> 66
c h1out12 <-> 67
c h1r0r12 <-> 67
c h1in12 <-> 67
c h1out11 <-> 68
c h1r0r11 <-> 68
c h1in11 <-> 68
c h1out10 <-> 69
c h1r0r10 <-> 69
c h1in10 <-> 69
c h1out9 <-> 70
c h1r0r9 <-> 70
c h1in9 <-> 70
c h1out8 <-> 71
c h1r0r8 <-> 71
c h1in8 <-> 71
c h1out7 <-> 72
c h1r0r7 <-> 72
c h1in7 <-> 72
c h1out6 <-> 73
c h1r0r6 <-> 73
c h1in6 <-> 73
c h1out5 <-> 74
c h1r0r5 <-> 74
c h1in5 <-> 74
c h1out4 <-> 75
c h1r0r4 <-> 75
c h1in4 <-> 75
c h1out3 <-> 76
c h1r0r3 <-> 76
c h1in3 <-> 76
c h1out2 <-> 77
c h1r0r2 <-> 77
c h1in2 <-> 77
c h1out1 <-> 78
c h1r0r1 <-> 78
c h1in1 <-> 78
c h1out0 <-> 79
c h1r0r0 <-> 79
c h1in0 <-> 79
p cnf 79 135
1 -2 0
1 -2 0
-1 2 2 0
1 0
-2 3 0
-2 4 0
2 -4 -3 0
3 4 0
-3 -4 0
-4 5 0
-4 6 0
-4 7 0
-4 8 0
-4 9 0
-4 10 0
-4 11 0
-4 12 0
-4 13 0
-4 14 0
-4 15 0
-4 16 0
-4 17 0
-4 18 0
-4 19 0
-4 20 0
-4 21 0
-4 22 0
-4 23 0
-4 24 0
-4 25 0
-4 26 0
-4 27 0
-4 28 0
-4 29 0
4 -29 -28 -27 -26 -25 -24 -23 -22 -21 -20 -19 -18 -17 -16 -15 -14 -13 -12 -11 -10 -9 -8 -7 -6 -5 0
5 55 30 0
5 -55 -30 0
-5 55 -30 0
-5 -55 30 0
6 56 31 0
6 -56 -31 0
-6 56 -31 0
-6 -56 31 0
7 57 32 0
7 -57 -32 0
-7 57 -32 0
-7 -57 32 0
8 58 33 0
8 -58 -33 0
-8 58 -33 0
-8 -58 33 0
9 59 34 0
9 -59 -34 0
-9 59 -34 0
-9 -59 34 0
10 60 35 0
10 -60 -35 0
-10 60 -35 0
-10 -60 35 0
11 61 36 0
11 -61 -36 0
-11 61 -36 0
-11 -61 36 0
12 62 37 0
12 -62 -37 0
-12 62 -37 0
-12 -62 37 0
13 63 38 0
13 -63 -38 0
-13 63 -38 0
-13 -63 38 0
14 64 39 0
14 -64 -39 0
-14 64 -39 0
-14 -64 39 0
15 65 40 0
15 -65 -40 0
-15 65 -40 0
-15 -65 40 0
16 66 41 0
16 -66 -41 0
-16 66 -41 0
-16 -66 41 0
17 67 42 0
17 -67 -42 0
-17 67 -42 0
-17 -67 42 0
18 68 43 0
18 -68 -43 0
-18 68 -43 0
-18 -68 43 0
19 69 44 0
19 -69 -44 0
-19 69 -44 0
-19 -69 44 0
20 70 45 0
20 -70 -45 0
-20 70 -45 0
-20 -70 45 0
21 71 46 0
21 -71 -46 0
-21 71 -46 0
-21 -71 46 0
22 72 47 0
22 -72 -47 0
-22 72 -47 0
-22 -72 47 0
23 73 48 0
23 -73 -48 0
-23 73 -48 0
-23 -73 48 0
24 74 49 0
24 -74 -49 0
-24 74 -49 0
-24 -74 49 0
25 75 50 0
25 -75 -50 0
-25 75 -50 0
-25 -75 50 0
26 76 51 0
26 -76 -51 0
-26 76 -51 0
-26 -76 51 0
27 77 52 0
27 -77 -52 0
-27 77 -52 0
-27 -77 52 0
28 78 53 0
28 -78 -53 0
-28 78 -53 0
-28 -78 53 0
29 79 54 0
29 -79 -54 0
-29 79 -54 0
-29 -79 54 0
